7
0, 989, 762, 459, 718, 546, 585
989, 0, 391, 734, 487, 581, 530
762, 391, 0, 708, 615, 594, 564
459, 734, 708, 0, 307, 154, 207
718, 487, 615, 307, 0, 174, 135
546, 581, 594, 154, 174, 0, 52
585, 530, 564, 207, 135, 52, 0
